Version identifier: 20.1.0.0 | 2020-11-10 | 9bedb6d68
CPXPARAM_Threads                                 1
CPXPARAM_TimeLimit                               7200
CPXPARAM_MIP_Tolerances_MIPGap                   0
Generic callback                                 0x60
1 of 1 MIP starts provided solutions.
MIP start 'm1' defined initial solution with objective 1403.7240.
Tried aggregator 1 time.
Reduced MIP has 800801 rows, 801001 columns, and 2401000 nonzeros.
Reduced MIP has 1000 binaries, 0 generals, 0 SOSs, and 0 indicators.
Presolve time = 0.86 sec. (759.66 ticks)
Probing time = 0.10 sec. (100.05 ticks)
Tried aggregator 1 time.
Reduced MIP has 800801 rows, 801001 columns, and 2401000 nonzeros.
Reduced MIP has 1000 binaries, 0 generals, 0 SOSs, and 0 indicators.
Presolve time = 0.81 sec. (746.68 ticks)
Probing time = 0.10 sec. (100.05 ticks)
MIP emphasis: balance optimality and feasibility.
MIP search method: dynamic search.
Parallel mode: none, using 1 thread.
Root relaxation solution time = 0.27 sec. (308.31 ticks)

        Nodes                                         Cuts/
   Node  Left     Objective  IInf  Best Integer    Best Bound    ItCnt     Gap

*     0+    0                         1403.7240     4368.0000           211.17%
      0     0     1452.6410     4     1403.7240     4368.0000        0  211.17%
      0     2     1452.6410     4     1403.7240     1452.6408        0    3.48%
Elapsed time = 3390.96 sec. (2940422.73 ticks, tree = 0.01 MB, solutions = 1)
      1     3     1412.8468     2     1403.7240     1452.6408     1391    3.48%

User cuts applied:  5

Root node processing (before b&c):
  Real time             = 3390.78 sec. (2940247.44 ticks)
Sequential b&c:
  Real time             = 3809.62 sec. (2463014.45 ticks)
                          ------------
Total (root+branch&cut) = 7200.40 sec. (5403261.89 ticks)
@Parameters: 
is_S_cut                                true
is_add_all_yinF                         true
is_start_value                          true
is_usercut                              true
is_visualization                        false
uc_only_rootnode                        false

data                                    Qi
fn                                      data/Qi/instance_800_1000.csv
mode                                    ZLP
solver                                  cplex

p                                       2
r                                       5

EPS                                     1.0e-06
EPS_vio                                 1.0e-04
beta                                    0.10
gap                                     0.00
nodelimit                               Inf
timelimit                               7200.00


@PrintInfos
ItCnt: 53578
Current gap: 3.48 %
Termination Status: TIME_LIMIT
Primal Status: FEASIBLE_POINT
Solve Time: 7200.40 sec
Objective Value: 1403.724029
Number of Nodes:      2

CutInfo: [phase] num / time (sec) 
ZLP             [phase1]     0 / 0.00 [rLC]     4 / 18.79 [rUC]     2 / 7.45 [sLC]     2 / 6.73 [sUC]     1 / 4.79 
OldSubmodular   [phase1]     0 / 0.00 [rLC]     0 / 0.00 [rUC]     0 / 0.00 [sLC]     0 / 0.00 [sUC]     0 / 0.00 
NewSubmodular   [phase1]     0 / 0.00 [rLC]     0 / 0.00 [rUC]     0 / 0.00 [sLC]     0 / 0.00 [sUC]     0 / 0.00 
PMP             [phase1]     0 / 0.00 [rLC]     5 / 13.60 [rUC]     2 / 5.28 [sLC]     2 / 5.02 [sUC]     1 / 3.46 
Separation Round: [phase1] 0  [rLC] 5  [rUC] 2  [sLC] 2  [sUC] 1
Root Best Bound 1452.640777
Root Best Integer: 1403.724029
Best Bound: 1452.640777
Best Integer: 1403.724029

